\ This file has been generated by DOcplex
\ ENCODING=ISO-8859-1
\Problem name: random_problem.lp

Minimize
 obj: 218 x0 + 109 x1 - 154 x2 - 77 x3 - 196 x4 - 98 x5 + 90 x6 + 45 x7 + 308 x8
      + 154 x9 - 200 x10 - 100 x11 + 510 x12 + 255 x13 - 732 x14 - 366 x15
      + 90 x16 + 45 x17 - 236 x18 - 118 x19 - 282 x20 - 141 x21 - 300 x22
      - 150 x23 + [ 496 x0^2 + 496 x0*x1 - 64 x0*x2 - 32 x0*x3 + 256 x0*x4
      + 128 x0*x5 + 400 x0*x6 + 200 x0*x7 + 640 x0*x8 + 320 x0*x9 + 384 x0*x12
      + 192 x0*x13 + 400 x0*x14 + 200 x0*x15 + 832 x0*x16 + 416 x0*x17
      - 256 x0*x18 - 128 x0*x19 + 144 x0*x20 + 72 x0*x21 + 448 x0*x22
      + 224 x0*x23 + 124 x1^2 - 32 x1*x2 - 16 x1*x3 + 128 x1*x4 + 64 x1*x5
      + 200 x1*x6 + 100 x1*x7 + 320 x1*x8 + 160 x1*x9 + 192 x1*x12 + 96 x1*x13
      + 200 x1*x14 + 100 x1*x15 + 416 x1*x16 + 208 x1*x17 - 128 x1*x18
      - 64 x1*x19 + 72 x1*x20 + 36 x1*x21 + 224 x1*x22 + 112 x1*x23 + 1264 x2^2
      + 1264 x2*x3 + 672 x2*x4 + 336 x2*x5 + 448 x2*x6 + 224 x2*x7 + 832 x2*x8
      + 416 x2*x9 + 576 x2*x10 + 288 x2*x11 + 1184 x2*x12 + 592 x2*x13
      + 832 x2*x14 + 416 x2*x15 - 160 x2*x16 - 80 x2*x17 + 240 x2*x18
      + 120 x2*x19 + 1600 x2*x20 + 800 x2*x21 + 316 x3^2 + 336 x3*x4 + 168 x3*x5
      + 224 x3*x6 + 112 x3*x7 + 416 x3*x8 + 208 x3*x9 + 288 x3*x10 + 144 x3*x11
      + 592 x3*x12 + 296 x3*x13 + 416 x3*x14 + 208 x3*x15 - 80 x3*x16
      - 40 x3*x17 + 120 x3*x18 + 60 x3*x19 + 800 x3*x20 + 400 x3*x21 + 344 x4^2
      + 344 x4*x5 + 576 x4*x6 + 288 x4*x7 + 800 x4*x8 + 400 x4*x9 + 320 x4*x10
      + 160 x4*x11 + 880 x4*x12 + 440 x4*x13 + 448 x4*x14 + 224 x4*x15
      + 192 x4*x16 + 96 x4*x17 + 128 x4*x18 + 64 x4*x19 + 784 x4*x20
      + 392 x4*x21 + 432 x4*x22 + 216 x4*x23 + 86 x5^2 + 288 x5*x6 + 144 x5*x7
      + 400 x5*x8 + 200 x5*x9 + 160 x5*x10 + 80 x5*x11 + 440 x5*x12 + 220 x5*x13
      + 224 x5*x14 + 112 x5*x15 + 96 x5*x16 + 48 x5*x17 + 64 x5*x18 + 32 x5*x19
      + 392 x5*x20 + 196 x5*x21 + 216 x5*x22 + 108 x5*x23 + 448 x6^2 + 448 x6*x7
      + 752 x6*x8 + 376 x6*x9 + 224 x6*x10 + 112 x6*x11 + 832 x6*x12
      + 416 x6*x13 + 592 x6*x14 + 296 x6*x15 + 688 x6*x16 + 344 x6*x17
      + 208 x6*x18 + 104 x6*x19 + 592 x6*x20 + 296 x6*x21 + 1248 x6*x22
      + 624 x6*x23 + 112 x7^2 + 376 x7*x8 + 188 x7*x9 + 112 x7*x10 + 56 x7*x11
      + 416 x7*x12 + 208 x7*x13 + 296 x7*x14 + 148 x7*x15 + 344 x7*x16
      + 172 x7*x17 + 104 x7*x18 + 52 x7*x19 + 296 x7*x20 + 148 x7*x21
      + 624 x7*x22 + 312 x7*x23 + 1128 x8^2 + 1128 x8*x9 + 192 x8*x10
      + 96 x8*x11 + 784 x8*x12 + 392 x8*x13 + 832 x8*x14 + 416 x8*x15
      + 1360 x8*x16 + 680 x8*x17 + 128 x8*x18 + 64 x8*x19 + 864 x8*x20
      + 432 x8*x21 + 1040 x8*x22 + 520 x8*x23 + 282 x9^2 + 96 x9*x10 + 48 x9*x11
      + 392 x9*x12 + 196 x9*x13 + 416 x9*x14 + 208 x9*x15 + 680 x9*x16
      + 340 x9*x17 + 64 x9*x18 + 32 x9*x19 + 432 x9*x20 + 216 x9*x21
      + 520 x9*x22 + 260 x9*x23 + 248 x10^2 + 248 x10*x11 + 384 x10*x12
      + 192 x10*x13 + 160 x10*x14 + 80 x10*x15 - 448 x10*x16 - 224 x10*x17
      + 208 x10*x18 + 104 x10*x19 + 304 x10*x20 + 152 x10*x21 - 48 x10*x22
      - 24 x10*x23 + 62 x11^2 + 192 x11*x12 + 96 x11*x13 + 80 x11*x14
      + 40 x11*x15 - 224 x11*x16 - 112 x11*x17 + 104 x11*x18 + 52 x11*x19
      + 152 x11*x20 + 76 x11*x21 - 24 x11*x22 - 12 x11*x23 + 1064 x12^2
      + 1064 x12*x13 + 928 x12*x14 + 464 x12*x15 + 128 x12*x16 + 64 x12*x17
      + 304 x12*x18 + 152 x12*x19 + 1008 x12*x20 + 504 x12*x21 + 592 x12*x22
      + 296 x12*x23 + 266 x13^2 + 464 x13*x14 + 232 x13*x15 + 64 x13*x16
      + 32 x13*x17 + 152 x13*x18 + 76 x13*x19 + 504 x13*x20 + 252 x13*x21
      + 296 x13*x22 + 148 x13*x23 + 632 x14^2 + 632 x14*x15 + 912 x14*x16
      + 456 x14*x17 - 208 x14*x18 - 104 x14*x19 + 736 x14*x20 + 368 x14*x21
      + 768 x14*x22 + 384 x14*x23 + 158 x15^2 + 456 x15*x16 + 228 x15*x17
      - 104 x15*x18 - 52 x15*x19 + 368 x15*x20 + 184 x15*x21 + 384 x15*x22
      + 192 x15*x23 + 2528 x16^2 + 2528 x16*x17 - 176 x16*x18 - 88 x16*x19
      + 432 x16*x20 + 216 x16*x21 + 2224 x16*x22 + 1112 x16*x23 + 632 x17^2
      - 88 x17*x18 - 44 x17*x19 + 216 x17*x20 + 108 x17*x21 + 1112 x17*x22
      + 556 x17*x23 + 464 x18^2 + 464 x18*x19 - 32 x18*x20 - 16 x18*x21
      + 432 x18*x22 + 216 x18*x23 + 116 x19^2 - 16 x19*x20 - 8 x19*x21
      + 216 x19*x22 + 108 x19*x23 + 872 x20^2 + 872 x20*x21 + 336 x20*x22
      + 168 x20*x23 + 218 x21^2 + 168 x21*x22 + 84 x21*x23 + 1600 x22^2
      + 1600 x22*x23 + 400 x23^2 ]/2
Subject To
 c0: 2 x0 + x1 + 2 x2 + x3 + 2 x4 + x5 + 2 x6 + x7 + 2 x8 + x9 + 2 x10 + x11
     + 2 x12 + x13 + 2 x14 + x15 + 2 x16 + x17 + 2 x18 + x19 + 2 x20 + x21
     + 2 x22 + x23 = 3

Bounds
 0 <= x0 <= 1
 0 <= x1 <= 1
 0 <= x2 <= 1
 0 <= x3 <= 1
 0 <= x4 <= 1
 0 <= x5 <= 1
 0 <= x6 <= 1
 0 <= x7 <= 1
 0 <= x8 <= 1
 0 <= x9 <= 1
 0 <= x10 <= 1
 0 <= x11 <= 1
 0 <= x12 <= 1
 0 <= x13 <= 1
 0 <= x14 <= 1
 0 <= x15 <= 1
 0 <= x16 <= 1
 0 <= x17 <= 1
 0 <= x18 <= 1
 0 <= x19 <= 1
 0 <= x20 <= 1
 0 <= x21 <= 1
 0 <= x22 <= 1
 0 <= x23 <= 1

Binaries
 x0 x1 x2 x3 x4 x5 x6 x7 x8 x9 x10 x11 x12 x13 x14 x15 x16 x17 x18 x19 x20 x21
 x22 x23
End
